c description: Perfect Matching Principle on 
c generator: CNFgen (0.9.0)
c copyright: (C) 2012-2020 Massimo Lauria <massimo.lauria@uniroma1.it>
c url: https://massimolauria.net/cnfgen
c
p cnf 80 345
-1 -2 0
-1 -3 0
-1 -4 0
-1 -5 0
-1 -6 0
-1 -7 0
-1 -8 0
-2 -3 0
-2 -4 0
-2 -5 0
-2 -6 0
-2 -7 0
-2 -8 0
-3 -4 0
-3 -5 0
-3 -6 0
-3 -7 0
-3 -8 0
-4 -5 0
-4 -6 0
-4 -7 0
-4 -8 0
-5 -6 0
-5 -7 0
-5 -8 0
-6 -7 0
-6 -8 0
-7 -8 0
1 2 3 4 5 6 7 8 0
-9 -10 0
-9 -11 0
-9 -12 0
-9 -13 0
-10 -11 0
-10 -12 0
-10 -13 0
-11 -12 0
-11 -13 0
-12 -13 0
9 10 11 12 13 0
-9 -14 0
-9 -15 0
-14 -15 0
9 14 15 0
-16 -17 0
-16 -18 0
-16 -19 0
-16 -20 0
-17 -18 0
-17 -19 0
-17 -20 0
-18 -19 0
-18 -20 0
-19 -20 0
16 17 18 19 20 0
-21 -22 0
-21 -23 0
-21 -24 0
-21 -25 0
-21 -26 0
-21 -27 0
-21 -28 0
-22 -23 0
-22 -24 0
-22 -25 0
-22 -26 0
-22 -27 0
-22 -28 0
-23 -24 0
-23 -25 0
-23 -26 0
-23 -27 0
-23 -28 0
-24 -25 0
-24 -26 0
-24 -27 0
-24 -28 0
-25 -26 0
-25 -27 0
-25 -28 0
-26 -27 0
-26 -28 0
-27 -28 0
21 22 23 24 25 26 27 28 0
-16 -29 0
-16 -30 0
-16 -31 0
-16 -32 0
-29 -30 0
-29 -31 0
-29 -32 0
-30 -31 0
-30 -32 0
-31 -32 0
16 29 30 31 32 0
-10 -14 0
-10 -17 0
-10 -21 0
-10 -33 0
-14 -17 0
-14 -21 0
-14 -33 0
-17 -21 0
-17 -33 0
-21 -33 0
10 14 17 21 33 0
-1 -22 0
-1 -34 0
-1 -35 0
-1 -36 0
-22 -34 0
-22 -35 0
-22 -36 0
-34 -35 0
-34 -36 0
-35 -36 0
1 22 34 35 36 0
-2 -11 0
-2 -18 0
-2 -37 0
-2 -38 0
-2 -39 0
-2 -40 0
-11 -18 0
-11 -37 0
-11 -38 0
-11 -39 0
-11 -40 0
-18 -37 0
-18 -38 0
-18 -39 0
-18 -40 0
-37 -38 0
-37 -39 0
-37 -40 0
-38 -39 0
-38 -40 0
-39 -40 0
2 11 18 37 38 39 40 0
-3 -23 0
-3 -29 0
-3 -41 0
-3 -42 0
-3 -43 0
-23 -29 0
-23 -41 0
-23 -42 0
-23 -43 0
-29 -41 0
-29 -42 0
-29 -43 0
-41 -42 0
-41 -43 0
-42 -43 0
3 23 29 41 42 43 0
-44 -45 0
44 45 0
-46 -47 0
-46 -48 0
-46 -49 0
-46 -50 0
-47 -48 0
-47 -49 0
-47 -50 0
-48 -49 0
-48 -50 0
-49 -50 0
46 47 48 49 50 0
-34 -37 0
-34 -51 0
-37 -51 0
34 37 51 0
-4 -46 0
-4 -52 0
-4 -53 0
-4 -54 0
-4 -55 0
-46 -52 0
-46 -53 0
-46 -54 0
-46 -55 0
-52 -53 0
-52 -54 0
-52 -55 0
-53 -54 0
-53 -55 0
-54 -55 0
4 46 52 53 54 55 0
-56 -57 0
-56 -58 0
-56 -59 0
-56 -60 0
-57 -58 0
-57 -59 0
-57 -60 0
-58 -59 0
-58 -60 0
-59 -60 0
56 57 58 59 60 0
-61 -62 0
61 62 0
-5 -44 0
-5 -56 0
-5 -63 0
-5 -64 0
-44 -56 0
-44 -63 0
-44 -64 0
-56 -63 0
-56 -64 0
-63 -64 0
5 44 56 63 64 0
-38 -52 0
-38 -65 0
-52 -65 0
38 52 65 0
24 0
-53 -66 0
-53 -67 0
-66 -67 0
53 66 67 0
-6 -63 0
-6 -66 0
-6 -68 0
-63 -66 0
-63 -68 0
-66 -68 0
6 63 66 68 0
-25 -57 0
-25 -64 0
-25 -69 0
-57 -64 0
-57 -69 0
-64 -69 0
25 57 64 69 0
-19 -30 0
-19 -41 0
-19 -54 0
-19 -61 0
-19 -70 0
-30 -41 0
-30 -54 0
-30 -61 0
-30 -70 0
-41 -54 0
-41 -61 0
-41 -70 0
-54 -61 0
-54 -70 0
-61 -70 0
19 30 41 54 61 70 0
-26 -71 0
-26 -72 0
-71 -72 0
26 71 72 0
-12 -73 0
-12 -74 0
-73 -74 0
12 73 74 0
-33 -65 0
-33 -73 0
-33 -75 0
-65 -73 0
-65 -75 0
-73 -75 0
33 65 73 75 0
-13 -35 0
-13 -42 0
-13 -47 0
-13 -51 0
-13 -58 0
-35 -42 0
-35 -47 0
-35 -51 0
-35 -58 0
-42 -47 0
-42 -51 0
-42 -58 0
-47 -51 0
-47 -58 0
-51 -58 0
13 35 42 47 51 58 0
-31 -43 0
-31 -76 0
-43 -76 0
31 43 76 0
-36 -59 0
-36 -62 0
-36 -71 0
-59 -62 0
-59 -71 0
-62 -71 0
36 59 62 71 0
-77 -78 0
77 78 0
0
-48 -74 0
-48 -79 0
-74 -79 0
48 74 79 0
-39 -76 0
39 76 0
-15 -40 0
-15 -49 0
-15 -79 0
-40 -49 0
-40 -79 0
-49 -79 0
15 40 49 79 0
69 0
-20 -27 0
20 27 0
-7 -55 0
-7 -72 0
-7 -77 0
-7 -80 0
-55 -72 0
-55 -77 0
-55 -80 0
-72 -77 0
-72 -80 0
-77 -80 0
7 55 72 77 80 0
-28 -32 0
-28 -68 0
-28 -75 0
-32 -68 0
-32 -75 0
-68 -75 0
28 32 68 75 0
-50 -70 0
-50 -80 0
-70 -80 0
50 70 80 0
-8 -45 0
-8 -60 0
-8 -67 0
-8 -78 0
-45 -60 0
-45 -67 0
-45 -78 0
-60 -67 0
-60 -78 0
-67 -78 0
8 45 60 67 78 0